p cnf 386 460
-7 18 10 21 22 0
-7 18 10 21 -22 0
-7 18 10 -21 23 0
-7 18 10 -21 -23 0
16 -4 -7 24 25 0
16 -4 -7 24 -25 0
16 -4 -7 -24 26 0
16 -4 -7 -24 -26 0
9 13 1 27 28 0
9 13 1 27 -28 0
9 13 1 -27 29 0
9 13 1 -27 -29 0
-8 19 13 30 31 0
-8 19 13 30 -31 0
-8 19 13 -30 32 0
-8 19 13 -30 -32 0
17 9 20 33 34 0
17 9 20 33 -34 0
17 9 20 -33 35 0
17 9 20 -33 -35 0
20 -17 3 36 37 0
20 -17 3 36 -37 0
20 -17 3 -36 38 0
20 -17 3 -36 -38 0
-10 -7 8 39 40 0
-10 -7 8 39 -40 0
-10 -7 8 -39 41 0
-10 -7 8 -39 -41 0
10 -19 -15 42 43 0
10 -19 -15 42 -43 0
10 -19 -15 -42 44 0
10 -19 -15 -42 -44 0
15 7 14 45 46 0
15 7 14 45 -46 0
15 7 14 -45 47 0
15 7 14 -45 -47 0
-18 17 -10 48 49 0
-18 17 -10 48 -49 0
-18 17 -10 -48 50 0
-18 17 -10 -48 -50 0
3 -6 16 51 52 0
3 -6 16 51 -52 0
3 -6 16 -51 53 0
3 -6 16 -51 -53 0
-9 -4 13 54 55 0
-9 -4 13 54 -55 0
-9 -4 13 -54 56 0
-9 -4 13 -54 -56 0
-19 -9 -1 57 58 0
-19 -9 -1 57 -58 0
-19 -9 -1 -57 59 0
-19 -9 -1 -57 -59 0
8 14 6 60 61 0
8 14 6 60 -61 0
8 14 6 -60 62 0
8 14 6 -60 -62 0
-3 -18 4 63 64 0
-3 -18 4 63 -64 0
-3 -18 4 -63 65 0
-3 -18 4 -63 -65 0
12 17 16 66 67 0
12 17 16 66 -67 0
12 17 16 -66 68 0
12 17 16 -66 -68 0
13 11 -14 69 70 0
13 11 -14 69 -70 0
13 11 -14 -69 71 0
13 11 -14 -69 -71 0
8 -6 -1 72 73 0
8 -6 -1 72 -73 0
8 -6 -1 -72 74 0
8 -6 -1 -72 -74 0
-7 -13 -8 75 76 0
-7 -13 -8 75 -76 0
-7 -13 -8 -75 77 0
-7 -13 -8 -75 -77 0
-12 -3 7 78 79 0
-12 -3 7 78 -79 0
-12 -3 7 -78 80 0
-12 -3 7 -78 -80 0
-8 -1 -4 81 82 0
-8 -1 -4 81 -82 0
-8 -1 -4 -81 83 0
-8 -1 -4 -81 -83 0
11 19 1 84 85 0
11 19 1 84 -85 0
11 19 1 -84 86 0
11 19 1 -84 -86 0
4 -13 -5 87 88 0
4 -13 -5 87 -88 0
4 -13 -5 -87 89 0
4 -13 -5 -87 -89 0
17 -13 19 90 91 0
17 -13 19 90 -91 0
17 -13 19 -90 92 0
17 -13 19 -90 -92 0
2 14 11 93 94 0
2 14 11 93 -94 0
2 14 11 -93 95 0
2 14 11 -93 -95 0
-11 -14 -5 96 97 0
-11 -14 -5 96 -97 0
-11 -14 -5 -96 98 0
-11 -14 -5 -96 -98 0
9 2 17 99 100 0
9 2 17 99 -100 0
9 2 17 -99 101 0
9 2 17 -99 -101 0
-15 -9 -14 102 103 0
-15 -9 -14 102 -103 0
-15 -9 -14 -102 104 0
-15 -9 -14 -102 -104 0
10 -9 -6 105 106 0
10 -9 -6 105 -106 0
10 -9 -6 -105 107 0
10 -9 -6 -105 -107 0
17 20 -11 108 109 0
17 20 -11 108 -109 0
17 20 -11 -108 110 0
17 20 -11 -108 -110 0
-12 -18 11 111 112 0
-12 -18 11 111 -112 0
-12 -18 11 -111 113 0
-12 -18 11 -111 -113 0
-15 20 4 114 115 0
-15 20 4 114 -115 0
-15 20 4 -114 116 0
-15 20 4 -114 -116 0
12 4 17 117 118 0
12 4 17 117 -118 0
12 4 17 -117 119 0
12 4 17 -117 -119 0
19 13 -17 120 121 0
19 13 -17 120 -121 0
19 13 -17 -120 122 0
19 13 -17 -120 -122 0
-2 18 15 123 124 0
-2 18 15 123 -124 0
-2 18 15 -123 125 0
-2 18 15 -123 -125 0
-9 -17 -19 126 127 0
-9 -17 -19 126 -127 0
-9 -17 -19 -126 128 0
-9 -17 -19 -126 -128 0
2 -8 -11 129 130 0
2 -8 -11 129 -130 0
2 -8 -11 -129 131 0
2 -8 -11 -129 -131 0
14 -11 3 132 133 0
14 -11 3 132 -133 0
14 -11 3 -132 134 0
14 -11 3 -132 -134 0
19 -15 -20 135 136 0
19 -15 -20 135 -136 0
19 -15 -20 -135 137 0
19 -15 -20 -135 -137 0
4 12 -2 138 139 0
4 12 -2 138 -139 0
4 12 -2 -138 140 0
4 12 -2 -138 -140 0
-4 20 -12 141 142 0
-4 20 -12 141 -142 0
-4 20 -12 -141 143 0
-4 20 -12 -141 -143 0
4 -6 19 144 145 0
4 -6 19 144 -145 0
4 -6 19 -144 146 0
4 -6 19 -144 -146 0
-6 9 -4 147 148 0
-6 9 -4 147 -148 0
-6 9 -4 -147 149 0
-6 9 -4 -147 -149 0
10 -2 -17 150 151 0
10 -2 -17 150 -151 0
10 -2 -17 -150 152 0
10 -2 -17 -150 -152 0
6 -15 7 153 154 0
6 -15 7 153 -154 0
6 -15 7 -153 155 0
6 -15 7 -153 -155 0
-6 -3 7 156 157 0
-6 -3 7 156 -157 0
-6 -3 7 -156 158 0
-6 -3 7 -156 -158 0
-18 1 -14 159 160 0
-18 1 -14 159 -160 0
-18 1 -14 -159 161 0
-18 1 -14 -159 -161 0
4 -9 2 162 163 0
4 -9 2 162 -163 0
4 -9 2 -162 164 0
4 -9 2 -162 -164 0
5 -9 11 165 166 0
5 -9 11 165 -166 0
5 -9 11 -165 167 0
5 -9 11 -165 -167 0
17 2 -16 168 169 0
17 2 -16 168 -169 0
17 2 -16 -168 170 0
17 2 -16 -168 -170 0
-10 -15 -18 171 172 0
-10 -15 -18 171 -172 0
-10 -15 -18 -171 173 0
-10 -15 -18 -171 -173 0
-4 9 -14 174 175 0
-4 9 -14 174 -175 0
-4 9 -14 -174 176 0
-4 9 -14 -174 -176 0
-10 -8 5 177 178 0
-10 -8 5 177 -178 0
-10 -8 5 -177 179 0
-10 -8 5 -177 -179 0
20 -19 13 180 181 0
20 -19 13 180 -181 0
20 -19 13 -180 182 0
20 -19 13 -180 -182 0
11 -17 -12 183 184 0
11 -17 -12 183 -184 0
11 -17 -12 -183 185 0
11 -17 -12 -183 -185 0
-1 9 15 186 187 0
-1 9 15 186 -187 0
-1 9 15 -186 188 0
-1 9 15 -186 -188 0
11 9 -15 189 190 0
11 9 -15 189 -190 0
11 9 -15 -189 191 0
11 9 -15 -189 -191 0
1 15 -6 192 193 0
1 15 -6 192 -193 0
1 15 -6 -192 194 0
1 15 -6 -192 -194 0
10 -4 -19 195 196 0
10 -4 -19 195 -196 0
10 -4 -19 -195 197 0
10 -4 -19 -195 -197 0
12 4 -15 198 199 0
12 4 -15 198 -199 0
12 4 -15 -198 200 0
12 4 -15 -198 -200 0
3 10 17 201 202 0
3 10 17 201 -202 0
3 10 17 -201 203 0
3 10 17 -201 -203 0
18 16 -17 204 205 0
18 16 -17 204 -205 0
18 16 -17 -204 206 0
18 16 -17 -204 -206 0
2 -15 1 207 208 0
2 -15 1 207 -208 0
2 -15 1 -207 209 0
2 -15 1 -207 -209 0
-16 -4 -19 210 211 0
-16 -4 -19 210 -211 0
-16 -4 -19 -210 212 0
-16 -4 -19 -210 -212 0
-9 20 12 213 214 0
-9 20 12 213 -214 0
-9 20 12 -213 215 0
-9 20 12 -213 -215 0
14 18 -8 216 217 0
14 18 -8 216 -217 0
14 18 -8 -216 218 0
14 18 -8 -216 -218 0
13 2 10 219 220 0
13 2 10 219 -220 0
13 2 10 -219 221 0
13 2 10 -219 -221 0
4 5 11 222 223 0
4 5 11 222 -223 0
4 5 11 -222 224 0
4 5 11 -222 -224 0
-7 3 -1 225 226 0
-7 3 -1 225 -226 0
-7 3 -1 -225 227 0
-7 3 -1 -225 -227 0
-2 11 18 228 229 0
-2 11 18 228 -229 0
-2 11 18 -228 230 0
-2 11 18 -228 -230 0
-5 -13 20 231 232 0
-5 -13 20 231 -232 0
-5 -13 20 -231 233 0
-5 -13 20 -231 -233 0
6 17 20 234 235 0
6 17 20 234 -235 0
6 17 20 -234 236 0
6 17 20 -234 -236 0
-13 -11 -7 237 238 0
-13 -11 -7 237 -238 0
-13 -11 -7 -237 239 0
-13 -11 -7 -237 -239 0
-20 18 -16 240 241 0
-20 18 -16 240 -241 0
-20 18 -16 -240 242 0
-20 18 -16 -240 -242 0
12 10 -9 243 244 0
12 10 -9 243 -244 0
12 10 -9 -243 245 0
12 10 -9 -243 -245 0
-15 10 9 246 247 0
-15 10 9 246 -247 0
-15 10 9 -246 248 0
-15 10 9 -246 -248 0
5 12 -19 249 250 0
5 12 -19 249 -250 0
5 12 -19 -249 251 0
5 12 -19 -249 -251 0
-8 -14 9 252 253 0
-8 -14 9 252 -253 0
-8 -14 9 -252 254 0
-8 -14 9 -252 -254 0
8 10 -3 255 256 0
8 10 -3 255 -256 0
8 10 -3 -255 257 0
8 10 -3 -255 -257 0
-1 2 10 258 259 0
-1 2 10 258 -259 0
-1 2 10 -258 260 0
-1 2 10 -258 -260 0
6 -15 1 261 262 0
6 -15 1 261 -262 0
6 -15 1 -261 263 0
6 -15 1 -261 -263 0
-12 -16 -10 264 265 0
-12 -16 -10 264 -265 0
-12 -16 -10 -264 266 0
-12 -16 -10 -264 -266 0
-6 3 -11 267 268 0
-6 3 -11 267 -268 0
-6 3 -11 -267 269 0
-6 3 -11 -267 -269 0
-6 10 2 270 271 0
-6 10 2 270 -271 0
-6 10 2 -270 272 0
-6 10 2 -270 -272 0
17 1 -12 273 274 0
17 1 -12 273 -274 0
17 1 -12 -273 275 0
17 1 -12 -273 -275 0
-13 1 12 276 277 0
-13 1 12 276 -277 0
-13 1 12 -276 278 0
-13 1 12 -276 -278 0
19 13 -4 279 280 0
19 13 -4 279 -280 0
19 13 -4 -279 281 0
19 13 -4 -279 -281 0
-5 11 1 282 283 0
-5 11 1 282 -283 0
-5 11 1 -282 284 0
-5 11 1 -282 -284 0
-14 13 -17 285 286 0
-14 13 -17 285 -286 0
-14 13 -17 -285 287 0
-14 13 -17 -285 -287 0
17 -4 18 288 289 0
17 -4 18 288 -289 0
17 -4 18 -288 290 0
17 -4 18 -288 -290 0
-5 4 16 291 292 0
-5 4 16 291 -292 0
-5 4 16 -291 293 0
-5 4 16 -291 -293 0
294 295 297 301 309 0
294 295 297 301 -309 0
294 295 297 -301 310 0
294 295 297 -301 -310 0
294 295 -297 302 311 0
294 295 -297 302 -311 0
294 295 -297 -302 312 0
294 295 -297 -302 -312 0
294 -295 298 303 313 0
294 -295 298 303 -313 0
294 -295 298 -303 314 0
294 -295 298 -303 -314 0
294 -295 -298 304 315 0
294 -295 -298 304 -315 0
294 -295 -298 -304 316 0
294 -295 -298 -304 -316 0
-294 296 299 305 317 0
-294 296 299 305 -317 0
-294 296 299 -305 318 0
-294 296 299 -305 -318 0
-294 296 -299 306 319 0
-294 296 -299 306 -319 0
-294 296 -299 -306 320 0
-294 296 -299 -306 -320 0
-294 -296 300 307 321 0
-294 -296 300 307 -321 0
-294 -296 300 -307 322 0
-294 -296 300 -307 -322 0
-294 -296 -300 308 323 0
-294 -296 -300 308 -323 0
-294 -296 -300 -308 324 0
-294 -296 -300 -308 -324 0
325 326 328 332 340 0
325 326 328 332 -340 0
325 326 328 -332 341 0
325 326 328 -332 -341 0
325 326 -328 333 342 0
325 326 -328 333 -342 0
325 326 -328 -333 343 0
325 326 -328 -333 -343 0
325 -326 329 334 344 0
325 -326 329 334 -344 0
325 -326 329 -334 345 0
325 -326 329 -334 -345 0
325 -326 -329 335 346 0
325 -326 -329 335 -346 0
325 -326 -329 -335 347 0
325 -326 -329 -335 -347 0
-325 327 330 336 348 0
-325 327 330 336 -348 0
-325 327 330 -336 349 0
-325 327 330 -336 -349 0
-325 327 -330 337 350 0
-325 327 -330 337 -350 0
-325 327 -330 -337 351 0
-325 327 -330 -337 -351 0
-325 -327 331 338 352 0
-325 -327 331 338 -352 0
-325 -327 331 -338 353 0
-325 -327 331 -338 -353 0
-325 -327 -331 339 354 0
-325 -327 -331 339 -354 0
-325 -327 -331 -339 355 0
-325 -327 -331 -339 -355 0
356 357 359 363 371 0
356 357 359 363 -371 0
356 357 359 -363 372 0
356 357 359 -363 -372 0
356 357 -359 364 373 0
356 357 -359 364 -373 0
356 357 -359 -364 374 0
356 357 -359 -364 -374 0
356 -357 360 365 375 0
356 -357 360 365 -375 0
356 -357 360 -365 376 0
356 -357 360 -365 -376 0
356 -357 -360 366 377 0
356 -357 -360 366 -377 0
356 -357 -360 -366 378 0
356 -357 -360 -366 -378 0
-356 358 361 367 379 0
-356 358 361 367 -379 0
-356 358 361 -367 380 0
-356 358 361 -367 -380 0
-356 358 -361 368 381 0
-356 358 -361 368 -381 0
-356 358 -361 -368 382 0
-356 358 -361 -368 -382 0
-356 -358 362 369 383 0
-356 -358 362 369 -383 0
-356 -358 362 -369 384 0
-356 -358 362 -369 -384 0
-356 -358 -362 370 385 0
-356 -358 -362 370 -385 0
-356 -358 -362 -370 386 0
-356 -358 -362 -370 -386 0

